Using license file /home/benedond/gurobi.lic
Using gurobi.env file
Set parameter Threads to value 1
Academic license - for non-commercial use only
Changed value of parameter TimeLimit to 300.0
   Prev: inf  Min: 0.0  Max: inf  Default: inf
Gurobi Optimizer version 9.0.1 build v9.0.1rc0 (linux64)
Optimize a model with 880 rows, 820 columns and 3258 nonzeros
Model fingerprint: 0x76067494
Variable types: 20 continuous, 800 integer (800 binary)
Coefficient statistics:
  Matrix range     [1e+00, 5e+02]
  Objective range  [5e+01, 5e+02]
  Bounds range     [1e+00, 1e+00]
  RHS range        [1e+00, 9e+02]
Presolve removed 538 rows and 520 columns
Presolve time: 0.18s
Presolved: 342 rows, 300 columns, 2363 nonzeros
Variable types: 17 continuous, 283 integer (283 binary)

Root relaxation: objective 9.710000e+02, 199 iterations, 0.00 seconds

    Nodes    |    Current Node    |     Objective Bounds      |     Work
 Expl Unexpl |  Obj  Depth IntInf | Incumbent    BestBd   Gap | It/Node Time

     0     0  971.00000    0   55          -  971.00000      -     -    0s
H    0     0                    2302.0000000  971.00000  57.8%     -    0s
H    0     0                    2130.0000000  971.00000  54.4%     -    0s
     0     0 1141.85954    0   53 2130.00000 1141.85954  46.4%     -    0s
H    0     0                    2029.0000000 1141.85954  43.7%     -    0s
     0     0 1142.23057    0   54 2029.00000 1142.23057  43.7%     -    0s
     0     0 1142.76719    0   53 2029.00000 1142.76719  43.7%     -    0s
     0     0 1142.83191    0   54 2029.00000 1142.83191  43.7%     -    0s
     0     0 1188.72318    0   58 2029.00000 1188.72318  41.4%     -    0s
H    0     0                    1796.0000000 1188.72318  33.8%     -    0s
     0     0 1188.95689    0   58 1796.00000 1188.95689  33.8%     -    0s
     0     0 1190.03636    0   56 1796.00000 1190.03636  33.7%     -    0s
     0     0 1190.37077    0   57 1796.00000 1190.37077  33.7%     -    0s
     0     0 1190.68686    0   56 1796.00000 1190.68686  33.7%     -    0s
     0     0 1192.79085    0   56 1796.00000 1192.79085  33.6%     -    0s
     0     0 1193.54953    0   58 1796.00000 1193.54953  33.5%     -    0s
     0     0 1193.82668    0   58 1796.00000 1193.82668  33.5%     -    0s
     0     0 1193.89921    0   58 1796.00000 1193.89921  33.5%     -    0s
     0     0 1198.85034    0   60 1796.00000 1198.85034  33.2%     -    0s
     0     0 1199.80665    0   61 1796.00000 1199.80665  33.2%     -    0s
     0     0 1200.08072    0   64 1796.00000 1200.08072  33.2%     -    0s
     0     0 1200.27010    0   63 1796.00000 1200.27010  33.2%     -    0s
     0     0 1200.31299    0   62 1796.00000 1200.31299  33.2%     -    0s
     0     0 1204.80508    0   57 1796.00000 1204.80508  32.9%     -    0s
     0     0 1205.21285    0   59 1796.00000 1205.21285  32.9%     -    0s
     0     0 1205.36717    0   59 1796.00000 1205.36717  32.9%     -    0s
     0     0 1210.80143    0   61 1796.00000 1210.80143  32.6%     -    0s
     0     0 1212.18485    0   58 1796.00000 1212.18485  32.5%     -    0s
     0     0 1212.30519    0   59 1796.00000 1212.30519  32.5%     -    0s
     0     0 1219.36748    0   58 1796.00000 1219.36748  32.1%     -    0s
     0     0 1223.24875    0   59 1796.00000 1223.24875  31.9%     -    0s
     0     0 1224.71563    0   61 1796.00000 1224.71563  31.8%     -    0s
     0     0 1224.94597    0   61 1796.00000 1224.94597  31.8%     -    0s
     0     0 1227.34287    0   58 1796.00000 1227.34287  31.7%     -    0s
     0     0 1227.77861    0   59 1796.00000 1227.77861  31.6%     -    0s
     0     0 1227.93998    0   61 1796.00000 1227.93998  31.6%     -    0s
     0     0 1231.37829    0   63 1796.00000 1231.37829  31.4%     -    0s
     0     0 1231.87623    0   62 1796.00000 1231.87623  31.4%     -    0s
     0     0 1232.24311    0   62 1796.00000 1232.24311  31.4%     -    0s
     0     0 1232.60191    0   63 1796.00000 1232.60191  31.4%     -    0s
     0     0 1232.74854    0   60 1796.00000 1232.74854  31.4%     -    0s
     0     0 1237.02459    0   61 1796.00000 1237.02459  31.1%     -    0s
     0     0 1240.65650    0   60 1796.00000 1240.65650  30.9%     -    0s
     0     0 1242.09688    0   65 1796.00000 1242.09688  30.8%     -    0s
     0     0 1242.34746    0   62 1796.00000 1242.34746  30.8%     -    0s
     0     0 1242.62468    0   67 1796.00000 1242.62468  30.8%     -    0s
     0     0 1242.65144    0   67 1796.00000 1242.65144  30.8%     -    0s
     0     0 1244.86610    0   62 1796.00000 1244.86610  30.7%     -    0s
     0     0 1247.74738    0   63 1796.00000 1247.74738  30.5%     -    0s
     0     0 1247.95011    0   63 1796.00000 1247.95011  30.5%     -    0s
     0     0 1247.96442    0   65 1796.00000 1247.96442  30.5%     -    0s
     0     0 1252.58334    0   63 1796.00000 1252.58334  30.3%     -    0s
     0     0 1253.83419    0   63 1796.00000 1253.83419  30.2%     -    0s
     0     0 1254.05100    0   65 1796.00000 1254.05100  30.2%     -    0s
     0     0 1254.33329    0   63 1796.00000 1254.33329  30.2%     -    0s
     0     0 1254.56005    0   64 1796.00000 1254.56005  30.1%     -    0s
     0     0 1254.68405    0   63 1796.00000 1254.68405  30.1%     -    0s
     0     0 1255.56384    0   63 1796.00000 1255.56384  30.1%     -    0s
     0     0 1255.73228    0   65 1796.00000 1255.73228  30.1%     -    0s
     0     0 1256.02232    0   65 1796.00000 1256.02232  30.1%     -    0s
     0     0 1256.02232    0   65 1796.00000 1256.02232  30.1%     -    0s
H    0     0                    1707.0000000 1256.02232  26.4%     -    0s
     0     2 1276.81738    0   65 1707.00000 1276.81738  25.2%     -    0s
H   27    21                    1685.0000000 1309.00000  22.3%  14.1    0s

Cutting planes:
  Gomory: 9
  Cover: 42
  Implied bound: 1
  Clique: 4
  MIR: 74
  GUB cover: 22
  Zero half: 1
  RLT: 1
  Relax-and-lift: 27

Explored 609 nodes (8116 simplex iterations) in 0.89 seconds
Thread count was 1 (of 4 available processors)

Solution count 6: 1685 1707 1796 ... 2302

Optimal solution found (tolerance 1.00e-04)
Best objective 1.685000000000e+03, best bound 1.685000000000e+03, gap 0.0000%
